robust/generate/spp_dkp_Lefebvre_et_al_2026/src/shortest_path_11_2.kp
44
414

[3.93 0.49 3.5 1.7 1.69 2.87 1.85 1.92 2.4 3.34 4.52 2.15 2.01 0.53 1.03 4.5 4.44 4.15 3.04 1.01 3.0 0.65 2.16 4.11 1.22 3.13 4.06 0.7 2.65 0.75 0.81 0.49 0.95 2.14 3.74 4.66 3.79 1.78 2.43 0.28 3.35 0.34 4.15 3.42 3.92 3.34 3.28 4.38 4.15 0.45 2.15 2.32 0.51 0.72 4.63 1.28 4.22 0.77 0.62 1.49 1.45 1.99 1.56 2.67 0.45 3.75 1.26 4.29 4.24 0.07 4.02 3.18 0.18 1.45 2.65 2.79 3.2 2.98 4.42 3.47 3.5 0.51 2.32 4.08 0.09 0.86 0.53 4.01]

[77 11 77 60 43 49 76 61 89 51 39 58 30 7 29 17 74 56 11 28 57 88 80 100 97 84 41 51 22 96 26 29 54 95 9 99 18 64 3 51 6 3 1 48 85 69 96 77 2 2 33 44 67 97 9 49 91 83 16 46 83 18 85 41 5 93 82 84 57 5 54 6 9 86 90 92 85 72 48 89 12 65 27 23 67 71 27 48]
