robust/generate/spp_dkp_Lefebvre_et_al_2026/src/shortest_path_11_2.lp
\ Model sp_11_2
\ LP format - for model browsing. Use MPS format to capture full model detail.
\ Signature: 0xb050d3b5baabe1c8
Minimize
  28.6 y[0,1] + 58.14 y[0,2] + 38.21 y[0,3] + 64.76 y[0,4] + 57.27 y[0,5]
   + 68.01 y[0,6] + 60.96 y[0,7] + 47.01 y[0,8] + 45.61 y[0,9] + 39 y[0,10]
   + 28.6 y[1,0] + 86.68 y[1,2] + 64.51 y[1,3] + 85.48 y[1,5]
   + 38.42 y[1,8] + 54.42 y[1,9] + 20.62 y[1,10] + 58.14 y[2,0]
   + 86.68 y[2,1] + 34.53 y[2,3] + 29.83 y[2,4] + 16.12 y[2,5]
   + 61.68 y[2,6] + 2.83 y[2,7] + 75.71 y[2,9] + 38.21 y[3,0]
   + 64.51 y[3,1] + 34.53 y[3,2] + 27.31 y[3,4] + 24.41 y[3,5]
   + 36.12 y[3,6] + 36.88 y[3,7] + 63.01 y[3,8] + 41.23 y[3,9]
   + 66.4 y[3,10] + 64.76 y[4,0] + 29.83 y[4,2] + 27.31 y[4,3]
   + 14.21 y[4,5] + 35.06 y[4,6] + 30.23 y[4,7] + 61.85 y[4,9]
   + 57.27 y[5,0] + 85.48 y[5,1] + 16.12 y[5,2] + 24.41 y[5,3]
   + 14.21 y[5,4] + 45.88 y[5,6] + 17.09 y[5,7] + 64.62 y[5,9]
   + 68.01 y[6,0] + 61.68 y[6,2] + 36.12 y[6,3] + 35.06 y[6,4]
   + 45.88 y[6,5] + 62.94 y[6,7] + 69.46 y[6,8] + 40.31 y[6,9]
   + 81.58 y[6,10] + 60.96 y[7,0] + 2.83 y[7,2] + 36.88 y[7,3]
   + 30.23 y[7,4] + 17.09 y[7,5] + 62.94 y[7,6] + 78.1 y[7,9]
   + 47.01 y[8,0] + 38.42 y[8,1] + 63.01 y[8,3] + 69.46 y[8,6]
   + 29.15 y[8,9] + 19.42 y[8,10] + 45.61 y[9,0] + 54.42 y[9,1]
   + 75.71 y[9,2] + 41.23 y[9,3] + 61.85 y[9,4] + 64.62 y[9,5]
   + 40.31 y[9,6] + 78.1 y[9,7] + 29.15 y[9,8] + 43 y[9,10] + 39 y[10,0]
   + 20.62 y[10,1] + 66.4 y[10,3] + 81.58 y[10,6] + 19.42 y[10,8]
   + 43 y[10,9] + 2.86 r[0,1] + 5.814 r[0,2] + 3.821 r[0,3] + 6.476 r[0,4]
   + 5.727 r[0,5] + 6.801 r[0,6] + 6.096 r[0,7] + 4.701 r[0,8]
   + 4.561 r[0,9] + 3.9 r[0,10] + 2.86 r[1,0] + 8.668 r[1,2] + 6.451 r[1,3]
   + 8.548 r[1,5] + 3.842 r[1,8] + 5.442 r[1,9] + 2.062 r[1,10]
   + 5.814 r[2,0] + 8.668 r[2,1] + 3.453 r[2,3] + 2.983 r[2,4]
   + 1.612 r[2,5] + 6.168 r[2,6] + 0.283 r[2,7] + 7.571 r[2,9]
   + 3.821 r[3,0] + 6.451 r[3,1] + 3.453 r[3,2] + 2.731 r[3,4]
   + 2.441 r[3,5] + 3.612 r[3,6] + 3.688 r[3,7] + 6.301 r[3,8]
   + 4.123 r[3,9] + 6.64 r[3,10] + 6.476 r[4,0] + 2.983 r[4,2]
   + 2.731 r[4,3] + 1.421 r[4,5] + 3.506 r[4,6] + 3.023 r[4,7]
   + 6.185 r[4,9] + 5.727 r[5,0] + 8.548 r[5,1] + 1.612 r[5,2]
   + 2.441 r[5,3] + 1.421 r[5,4] + 4.588 r[5,6] + 1.709 r[5,7]
   + 6.462 r[5,9] + 6.801 r[6,0] + 6.168 r[6,2] + 3.612 r[6,3]
   + 3.506 r[6,4] + 4.588 r[6,5] + 6.294 r[6,7] + 6.946 r[6,8]
   + 4.031 r[6,9] + 8.158 r[6,10] + 6.096 r[7,0] + 0.283 r[7,2]
   + 3.688 r[7,3] + 3.023 r[7,4] + 1.709 r[7,5] + 6.294 r[7,6]
   + 7.81 r[7,9] + 4.701 r[8,0] + 3.842 r[8,1] + 6.301 r[8,3]
   + 6.946 r[8,6] + 2.915 r[8,9] + 1.942 r[8,10] + 4.561 r[9,0]
   + 5.442 r[9,1] + 7.571 r[9,2] + 4.123 r[9,3] + 6.185 r[9,4]
   + 6.462 r[9,5] + 4.031 r[9,6] + 7.81 r[9,7] + 2.915 r[9,8] + 4.3 r[9,10]
   + 3.9 r[10,0] + 2.062 r[10,1] + 6.64 r[10,3] + 8.158 r[10,6]
   + 1.942 r[10,8] + 4.3 r[10,9]
Subject To
 flow_cons_inner_nodes[0]: - y[0,1] - y[0,2] - y[0,3] - y[0,4] - y[0,5]
   - y[0,6] - y[0,7] - y[0,8] - y[0,9] - y[0,10] + y[1,0] + y[2,0] + y[3,0]
   + y[4,0] + y[5,0] + y[6,0] + y[7,0] + y[8,0] + y[9,0] + y[10,0] = 0
 flow_cons_inner_nodes[1]: y[0,1] - y[1,0] - y[1,2] - y[1,3] - y[1,5]
   - y[1,8] - y[1,9] - y[1,10] + y[2,1] + y[3,1] + y[5,1] + y[8,1] + y[9,1]
   + y[10,1] = 0
 flow_cons_inner_nodes[2]: y[0,2] + y[1,2] - y[2,0] - y[2,1] - y[2,3]
   - y[2,4] - y[2,5] - y[2,6] - y[2,7] - y[2,9] + y[3,2] + y[4,2] + y[5,2]
   + y[6,2] + y[7,2] + y[9,2] = 0
 flow_cons_inner_nodes[3]: y[0,3] + y[1,3] + y[2,3] - y[3,0] - y[3,1]
   - y[3,2] - y[3,4] - y[3,5] - y[3,6] - y[3,7] - y[3,8] - y[3,9] - y[3,10]
   + y[4,3] + y[5,3] + y[6,3] + y[7,3] + y[8,3] + y[9,3] + y[10,3] = 0
 flow_cons_inner_nodes[4]: y[0,4] + y[2,4] + y[3,4] - y[4,0] - y[4,2]
   - y[4,3] - y[4,5] - y[4,6] - y[4,7] - y[4,9] + y[5,4] + y[6,4] + y[7,4]
   + y[9,4] = 0
 flow_cons_inner_nodes[5]: y[0,5] + y[1,5] + y[2,5] + y[3,5] + y[4,5]
   - y[5,0] - y[5,1] - y[5,2] - y[5,3] - y[5,4] - y[5,6] - y[5,7] - y[5,9]
   + y[6,5] + y[7,5] + y[9,5] = 0
 flow_cons_inner_nodes[6]: y[0,6] + y[2,6] + y[3,6] + y[4,6] + y[5,6]
   - y[6,0] - y[6,2] - y[6,3] - y[6,4] - y[6,5] - y[6,7] - y[6,8] - y[6,9]
   - y[6,10] + y[7,6] + y[8,6] + y[9,6] + y[10,6] = 0
 flow_cons_inner_nodes[9]: y[0,9] + y[1,9] + y[2,9] + y[3,9] + y[4,9]
   + y[5,9] + y[6,9] + y[7,9] + y[8,9] - y[9,0] - y[9,1] - y[9,2] - y[9,3]
   - y[9,4] - y[9,5] - y[9,6] - y[9,7] - y[9,8] - y[9,10] + y[10,9] = 0
 flow_cons_inner_nodes[10]: y[0,10] + y[1,10] + y[3,10] + y[6,10] + y[8,10]
   + y[9,10] - y[10,0] - y[10,1] - y[10,3] - y[10,6] - y[10,8] - y[10,9]
   = 0
 flow_cons_source: - y[0,7] - y[2,7] - y[3,7] - y[4,7] - y[5,7] - y[6,7]
   + y[7,0] + y[7,2] + y[7,3] + y[7,4] + y[7,5] + y[7,6] + y[7,9] - y[9,7]
   = 1
 flow_cons_target: y[0,8] + y[1,8] + y[3,8] + y[6,8] - y[8,0] - y[8,1]
   - y[8,3] - y[8,6] - y[8,9] - y[8,10] + y[9,8] + y[10,8] = 1
 primal_lower: - 3.93 y[0,1] - 0.49 y[0,2] - 3.5 y[0,3] - 1.7 y[0,4]
   - 1.69 y[0,5] - 2.87 y[0,6] - 1.85 y[0,7] - 1.92 y[0,8] - 2.4 y[0,9]
   - 3.34 y[0,10] - 4.52 y[1,0] - 2.15 y[1,2] - 2.01 y[1,3] - 0.53 y[1,5]
   - 1.03 y[1,8] - 4.5 y[1,9] - 4.44 y[1,10] - 4.15 y[2,0] - 3.04 y[2,1]
   - 1.01 y[2,3] - 3 y[2,4] - 0.65 y[2,5] - 2.16 y[2,6] - 4.11 y[2,7]
   - 1.22 y[2,9] - 3.13 y[3,0] - 4.06 y[3,1] - 0.7 y[3,2] - 2.65 y[3,4]
   - 0.75 y[3,5] - 0.81 y[3,6] - 0.49 y[3,7] - 0.95 y[3,8] - 2.14 y[3,9]
   - 3.74 y[3,10] - 4.66 y[4,0] - 3.79 y[4,2] - 1.78 y[4,3] - 2.43 y[4,5]
   - 0.28 y[4,6] - 3.35 y[4,7] - 0.34 y[4,9] - 4.15 y[5,0] - 3.42 y[5,1]
   - 3.92 y[5,2] - 3.34 y[5,3] - 3.28 y[5,4] - 4.38 y[5,6] - 4.15 y[5,7]
   - 0.45 y[5,9] - 2.15 y[6,0] - 2.32 y[6,2] - 0.51 y[6,3] - 0.72 y[6,4]
   - 4.63 y[6,5] - 1.28 y[6,7] - 4.22 y[6,8] - 0.77 y[6,9] - 0.62 y[6,10]
   - 1.49 y[7,0] - 1.45 y[7,2] - 1.99 y[7,3] - 1.56 y[7,4] - 2.67 y[7,5]
   - 0.45 y[7,6] - 3.75 y[7,9] - 1.26 y[8,0] - 4.29 y[8,1] - 4.24 y[8,3]
   - 0.07 y[8,6] - 4.02 y[8,9] - 3.18 y[8,10] - 0.18 y[9,0] - 1.45 y[9,1]
   - 2.65 y[9,2] - 2.79 y[9,3] - 3.2 y[9,4] - 2.98 y[9,5] - 4.42 y[9,6]
   - 3.47 y[9,7] - 3.5 y[9,8] - 0.51 y[9,10] - 2.32 y[10,0] - 4.08 y[10,1]
   - 0.09 y[10,3] - 0.86 y[10,6] - 0.53 y[10,8] - 4.01 y[10,9] + 77 u[0,1]
   + 11 u[0,2] + 77 u[0,3] + 60 u[0,4] + 43 u[0,5] + 49 u[0,6] + 76 u[0,7]
   + 61 u[0,8] + 89 u[0,9] + 51 u[0,10] + 39 u[1,0] + 58 u[1,2] + 30 u[1,3]
   + 7 u[1,5] + 29 u[1,8] + 17 u[1,9] + 74 u[1,10] + 56 u[2,0] + 11 u[2,1]
   + 28 u[2,3] + 57 u[2,4] + 88 u[2,5] + 80 u[2,6] + 100 u[2,7] + 97 u[2,9]
   + 84 u[3,0] + 41 u[3,1] + 51 u[3,2] + 22 u[3,4] + 96 u[3,5] + 26 u[3,6]
   + 29 u[3,7] + 54 u[3,8] + 95 u[3,9] + 9 u[3,10] + 99 u[4,0] + 18 u[4,2]
   + 64 u[4,3] + 3 u[4,5] + 51 u[4,6] + 6 u[4,7] + 3 u[4,9] + u[5,0]
   + 48 u[5,1] + 85 u[5,2] + 69 u[5,3] + 96 u[5,4] + 77 u[5,6] + 2 u[5,7]
   + 2 u[5,9] + 33 u[6,0] + 44 u[6,2] + 67 u[6,3] + 97 u[6,4] + 9 u[6,5]
   + 49 u[6,7] + 91 u[6,8] + 83 u[6,9] + 16 u[6,10] + 46 u[7,0] + 83 u[7,2]
   + 18 u[7,3] + 85 u[7,4] + 41 u[7,5] + 5 u[7,6] + 93 u[7,9] + 82 u[8,0]
   + 84 u[8,1] + 57 u[8,3] + 5 u[8,6] + 54 u[8,9] + 6 u[8,10] + 9 u[9,0]
   + 86 u[9,1] + 90 u[9,2] + 92 u[9,3] + 85 u[9,4] + 72 u[9,5] + 48 u[9,6]
   + 89 u[9,7] + 12 u[9,8] + 65 u[9,10] + 27 u[10,0] + 23 u[10,1]
   + 67 u[10,3] + 71 u[10,6] + 27 u[10,8] + 48 u[10,9] <= 414
 mccormick1[0,1]: - u[0,1] + r[0,1] <= 0
 mccormick1[0,2]: - u[0,2] + r[0,2] <= 0
 mccormick1[0,3]: - u[0,3] + r[0,3] <= 0
 mccormick1[0,4]: - u[0,4] + r[0,4] <= 0
 mccormick1[0,5]: - u[0,5] + r[0,5] <= 0
 mccormick1[0,6]: - u[0,6] + r[0,6] <= 0
 mccormick1[0,7]: - u[0,7] + r[0,7] <= 0
 mccormick1[0,8]: - u[0,8] + r[0,8] <= 0
 mccormick1[0,9]: - u[0,9] + r[0,9] <= 0
 mccormick1[0,10]: - u[0,10] + r[0,10] <= 0
 mccormick1[1,0]: - u[1,0] + r[1,0] <= 0
 mccormick1[1,2]: - u[1,2] + r[1,2] <= 0
 mccormick1[1,3]: - u[1,3] + r[1,3] <= 0
 mccormick1[1,5]: - u[1,5] + r[1,5] <= 0
 mccormick1[1,8]: - u[1,8] + r[1,8] <= 0
 mccormick1[1,9]: - u[1,9] + r[1,9] <= 0
 mccormick1[1,10]: - u[1,10] + r[1,10] <= 0
 mccormick1[2,0]: - u[2,0] + r[2,0] <= 0
 mccormick1[2,1]: - u[2,1] + r[2,1] <= 0
 mccormick1[2,3]: - u[2,3] + r[2,3] <= 0
 mccormick1[2,4]: - u[2,4] + r[2,4] <= 0
 mccormick1[2,5]: - u[2,5] + r[2,5] <= 0
 mccormick1[2,6]: - u[2,6] + r[2,6] <= 0
 mccormick1[2,7]: - u[2,7] + r[2,7] <= 0
 mccormick1[2,9]: - u[2,9] + r[2,9] <= 0
 mccormick1[3,0]: - u[3,0] + r[3,0] <= 0
 mccormick1[3,1]: - u[3,1] + r[3,1] <= 0
 mccormick1[3,2]: - u[3,2] + r[3,2] <= 0
 mccormick1[3,4]: - u[3,4] + r[3,4] <= 0
 mccormick1[3,5]: - u[3,5] + r[3,5] <= 0
 mccormick1[3,6]: - u[3,6] + r[3,6] <= 0
 mccormick1[3,7]: - u[3,7] + r[3,7] <= 0
 mccormick1[3,8]: - u[3,8] + r[3,8] <= 0
 mccormick1[3,9]: - u[3,9] + r[3,9] <= 0
 mccormick1[3,10]: - u[3,10] + r[3,10] <= 0
 mccormick1[4,0]: - u[4,0] + r[4,0] <= 0
 mccormick1[4,2]: - u[4,2] + r[4,2] <= 0
 mccormick1[4,3]: - u[4,3] + r[4,3] <= 0
 mccormick1[4,5]: - u[4,5] + r[4,5] <= 0
 mccormick1[4,6]: - u[4,6] + r[4,6] <= 0
 mccormick1[4,7]: - u[4,7] + r[4,7] <= 0
 mccormick1[4,9]: - u[4,9] + r[4,9] <= 0
 mccormick1[5,0]: - u[5,0] + r[5,0] <= 0
 mccormick1[5,1]: - u[5,1] + r[5,1] <= 0
 mccormick1[5,2]: - u[5,2] + r[5,2] <= 0
 mccormick1[5,3]: - u[5,3] + r[5,3] <= 0
 mccormick1[5,4]: - u[5,4] + r[5,4] <= 0
 mccormick1[5,6]: - u[5,6] + r[5,6] <= 0
 mccormick1[5,7]: - u[5,7] + r[5,7] <= 0
 mccormick1[5,9]: - u[5,9] + r[5,9] <= 0
 mccormick1[6,0]: - u[6,0] + r[6,0] <= 0
 mccormick1[6,2]: - u[6,2] + r[6,2] <= 0
 mccormick1[6,3]: - u[6,3] + r[6,3] <= 0
 mccormick1[6,4]: - u[6,4] + r[6,4] <= 0
 mccormick1[6,5]: - u[6,5] + r[6,5] <= 0
 mccormick1[6,7]: - u[6,7] + r[6,7] <= 0
 mccormick1[6,8]: - u[6,8] + r[6,8] <= 0
 mccormick1[6,9]: - u[6,9] + r[6,9] <= 0
 mccormick1[6,10]: - u[6,10] + r[6,10] <= 0
 mccormick1[7,0]: - u[7,0] + r[7,0] <= 0
 mccormick1[7,2]: - u[7,2] + r[7,2] <= 0
 mccormick1[7,3]: - u[7,3] + r[7,3] <= 0
 mccormick1[7,4]: - u[7,4] + r[7,4] <= 0
 mccormick1[7,5]: - u[7,5] + r[7,5] <= 0
 mccormick1[7,6]: - u[7,6] + r[7,6] <= 0
 mccormick1[7,9]: - u[7,9] + r[7,9] <= 0
 mccormick1[8,0]: - u[8,0] + r[8,0] <= 0
 mccormick1[8,1]: - u[8,1] + r[8,1] <= 0
 mccormick1[8,3]: - u[8,3] + r[8,3] <= 0
 mccormick1[8,6]: - u[8,6] + r[8,6] <= 0
 mccormick1[8,9]: - u[8,9] + r[8,9] <= 0
 mccormick1[8,10]: - u[8,10] + r[8,10] <= 0
 mccormick1[9,0]: - u[9,0] + r[9,0] <= 0
 mccormick1[9,1]: - u[9,1] + r[9,1] <= 0
 mccormick1[9,2]: - u[9,2] + r[9,2] <= 0
 mccormick1[9,3]: - u[9,3] + r[9,3] <= 0
 mccormick1[9,4]: - u[9,4] + r[9,4] <= 0
 mccormick1[9,5]: - u[9,5] + r[9,5] <= 0
 mccormick1[9,6]: - u[9,6] + r[9,6] <= 0
 mccormick1[9,7]: - u[9,7] + r[9,7] <= 0
 mccormick1[9,8]: - u[9,8] + r[9,8] <= 0
 mccormick1[9,10]: - u[9,10] + r[9,10] <= 0
 mccormick1[10,0]: - u[10,0] + r[10,0] <= 0
 mccormick1[10,1]: - u[10,1] + r[10,1] <= 0
 mccormick1[10,3]: - u[10,3] + r[10,3] <= 0
 mccormick1[10,6]: - u[10,6] + r[10,6] <= 0
 mccormick1[10,8]: - u[10,8] + r[10,8] <= 0
 mccormick1[10,9]: - u[10,9] + r[10,9] <= 0
 mccormick2[0,1]: - y[0,1] + r[0,1] <= 0
 mccormick2[0,2]: - y[0,2] + r[0,2] <= 0
 mccormick2[0,3]: - y[0,3] + r[0,3] <= 0
 mccormick2[0,4]: - y[0,4] + r[0,4] <= 0
 mccormick2[0,5]: - y[0,5] + r[0,5] <= 0
 mccormick2[0,6]: - y[0,6] + r[0,6] <= 0
 mccormick2[0,7]: - y[0,7] + r[0,7] <= 0
 mccormick2[0,8]: - y[0,8] + r[0,8] <= 0
 mccormick2[0,9]: - y[0,9] + r[0,9] <= 0
 mccormick2[0,10]: - y[0,10] + r[0,10] <= 0
 mccormick2[1,0]: - y[1,0] + r[1,0] <= 0
 mccormick2[1,2]: - y[1,2] + r[1,2] <= 0
 mccormick2[1,3]: - y[1,3] + r[1,3] <= 0
 mccormick2[1,5]: - y[1,5] + r[1,5] <= 0
 mccormick2[1,8]: - y[1,8] + r[1,8] <= 0
 mccormick2[1,9]: - y[1,9] + r[1,9] <= 0
 mccormick2[1,10]: - y[1,10] + r[1,10] <= 0
 mccormick2[2,0]: - y[2,0] + r[2,0] <= 0
 mccormick2[2,1]: - y[2,1] + r[2,1] <= 0
 mccormick2[2,3]: - y[2,3] + r[2,3] <= 0
 mccormick2[2,4]: - y[2,4] + r[2,4] <= 0
 mccormick2[2,5]: - y[2,5] + r[2,5] <= 0
 mccormick2[2,6]: - y[2,6] + r[2,6] <= 0
 mccormick2[2,7]: - y[2,7] + r[2,7] <= 0
 mccormick2[2,9]: - y[2,9] + r[2,9] <= 0
 mccormick2[3,0]: - y[3,0] + r[3,0] <= 0
 mccormick2[3,1]: - y[3,1] + r[3,1] <= 0
 mccormick2[3,2]: - y[3,2] + r[3,2] <= 0
 mccormick2[3,4]: - y[3,4] + r[3,4] <= 0
 mccormick2[3,5]: - y[3,5] + r[3,5] <= 0
 mccormick2[3,6]: - y[3,6] + r[3,6] <= 0
 mccormick2[3,7]: - y[3,7] + r[3,7] <= 0
 mccormick2[3,8]: - y[3,8] + r[3,8] <= 0
 mccormick2[3,9]: - y[3,9] + r[3,9] <= 0
 mccormick2[3,10]: - y[3,10] + r[3,10] <= 0
 mccormick2[4,0]: - y[4,0] + r[4,0] <= 0
 mccormick2[4,2]: - y[4,2] + r[4,2] <= 0
 mccormick2[4,3]: - y[4,3] + r[4,3] <= 0
 mccormick2[4,5]: - y[4,5] + r[4,5] <= 0
 mccormick2[4,6]: - y[4,6] + r[4,6] <= 0
 mccormick2[4,7]: - y[4,7] + r[4,7] <= 0
 mccormick2[4,9]: - y[4,9] + r[4,9] <= 0
 mccormick2[5,0]: - y[5,0] + r[5,0] <= 0
 mccormick2[5,1]: - y[5,1] + r[5,1] <= 0
 mccormick2[5,2]: - y[5,2] + r[5,2] <= 0
 mccormick2[5,3]: - y[5,3] + r[5,3] <= 0
 mccormick2[5,4]: - y[5,4] + r[5,4] <= 0
 mccormick2[5,6]: - y[5,6] + r[5,6] <= 0
 mccormick2[5,7]: - y[5,7] + r[5,7] <= 0
 mccormick2[5,9]: - y[5,9] + r[5,9] <= 0
 mccormick2[6,0]: - y[6,0] + r[6,0] <= 0
 mccormick2[6,2]: - y[6,2] + r[6,2] <= 0
 mccormick2[6,3]: - y[6,3] + r[6,3] <= 0
 mccormick2[6,4]: - y[6,4] + r[6,4] <= 0
 mccormick2[6,5]: - y[6,5] + r[6,5] <= 0
 mccormick2[6,7]: - y[6,7] + r[6,7] <= 0
 mccormick2[6,8]: - y[6,8] + r[6,8] <= 0
 mccormick2[6,9]: - y[6,9] + r[6,9] <= 0
 mccormick2[6,10]: - y[6,10] + r[6,10] <= 0
 mccormick2[7,0]: - y[7,0] + r[7,0] <= 0
 mccormick2[7,2]: - y[7,2] + r[7,2] <= 0
 mccormick2[7,3]: - y[7,3] + r[7,3] <= 0
 mccormick2[7,4]: - y[7,4] + r[7,4] <= 0
 mccormick2[7,5]: - y[7,5] + r[7,5] <= 0
 mccormick2[7,6]: - y[7,6] + r[7,6] <= 0
 mccormick2[7,9]: - y[7,9] + r[7,9] <= 0
 mccormick2[8,0]: - y[8,0] + r[8,0] <= 0
 mccormick2[8,1]: - y[8,1] + r[8,1] <= 0
 mccormick2[8,3]: - y[8,3] + r[8,3] <= 0
 mccormick2[8,6]: - y[8,6] + r[8,6] <= 0
 mccormick2[8,9]: - y[8,9] + r[8,9] <= 0
 mccormick2[8,10]: - y[8,10] + r[8,10] <= 0
 mccormick2[9,0]: - y[9,0] + r[9,0] <= 0
 mccormick2[9,1]: - y[9,1] + r[9,1] <= 0
 mccormick2[9,2]: - y[9,2] + r[9,2] <= 0
 mccormick2[9,3]: - y[9,3] + r[9,3] <= 0
 mccormick2[9,4]: - y[9,4] + r[9,4] <= 0
 mccormick2[9,5]: - y[9,5] + r[9,5] <= 0
 mccormick2[9,6]: - y[9,6] + r[9,6] <= 0
 mccormick2[9,7]: - y[9,7] + r[9,7] <= 0
 mccormick2[9,8]: - y[9,8] + r[9,8] <= 0
 mccormick2[9,10]: - y[9,10] + r[9,10] <= 0
 mccormick2[10,0]: - y[10,0] + r[10,0] <= 0
 mccormick2[10,1]: - y[10,1] + r[10,1] <= 0
 mccormick2[10,3]: - y[10,3] + r[10,3] <= 0
 mccormick2[10,6]: - y[10,6] + r[10,6] <= 0
 mccormick2[10,8]: - y[10,8] + r[10,8] <= 0
 mccormick2[10,9]: - y[10,9] + r[10,9] <= 0
 mccormick3[0,1]: - y[0,1] - u[0,1] + r[0,1] >= -1
 mccormick3[0,2]: - y[0,2] - u[0,2] + r[0,2] >= -1
 mccormick3[0,3]: - y[0,3] - u[0,3] + r[0,3] >= -1
 mccormick3[0,4]: - y[0,4] - u[0,4] + r[0,4] >= -1
 mccormick3[0,5]: - y[0,5] - u[0,5] + r[0,5] >= -1
 mccormick3[0,6]: - y[0,6] - u[0,6] + r[0,6] >= -1
 mccormick3[0,7]: - y[0,7] - u[0,7] + r[0,7] >= -1
 mccormick3[0,8]: - y[0,8] - u[0,8] + r[0,8] >= -1
 mccormick3[0,9]: - y[0,9] - u[0,9] + r[0,9] >= -1
 mccormick3[0,10]: - y[0,10] - u[0,10] + r[0,10] >= -1
 mccormick3[1,0]: - y[1,0] - u[1,0] + r[1,0] >= -1
 mccormick3[1,2]: - y[1,2] - u[1,2] + r[1,2] >= -1
 mccormick3[1,3]: - y[1,3] - u[1,3] + r[1,3] >= -1
 mccormick3[1,5]: - y[1,5] - u[1,5] + r[1,5] >= -1
 mccormick3[1,8]: - y[1,8] - u[1,8] + r[1,8] >= -1
 mccormick3[1,9]: - y[1,9] - u[1,9] + r[1,9] >= -1
 mccormick3[1,10]: - y[1,10] - u[1,10] + r[1,10] >= -1
 mccormick3[2,0]: - y[2,0] - u[2,0] + r[2,0] >= -1
 mccormick3[2,1]: - y[2,1] - u[2,1] + r[2,1] >= -1
 mccormick3[2,3]: - y[2,3] - u[2,3] + r[2,3] >= -1
 mccormick3[2,4]: - y[2,4] - u[2,4] + r[2,4] >= -1
 mccormick3[2,5]: - y[2,5] - u[2,5] + r[2,5] >= -1
 mccormick3[2,6]: - y[2,6] - u[2,6] + r[2,6] >= -1
 mccormick3[2,7]: - y[2,7] - u[2,7] + r[2,7] >= -1
 mccormick3[2,9]: - y[2,9] - u[2,9] + r[2,9] >= -1
 mccormick3[3,0]: - y[3,0] - u[3,0] + r[3,0] >= -1
 mccormick3[3,1]: - y[3,1] - u[3,1] + r[3,1] >= -1
 mccormick3[3,2]: - y[3,2] - u[3,2] + r[3,2] >= -1
 mccormick3[3,4]: - y[3,4] - u[3,4] + r[3,4] >= -1
 mccormick3[3,5]: - y[3,5] - u[3,5] + r[3,5] >= -1
 mccormick3[3,6]: - y[3,6] - u[3,6] + r[3,6] >= -1
 mccormick3[3,7]: - y[3,7] - u[3,7] + r[3,7] >= -1
 mccormick3[3,8]: - y[3,8] - u[3,8] + r[3,8] >= -1
 mccormick3[3,9]: - y[3,9] - u[3,9] + r[3,9] >= -1
 mccormick3[3,10]: - y[3,10] - u[3,10] + r[3,10] >= -1
 mccormick3[4,0]: - y[4,0] - u[4,0] + r[4,0] >= -1
 mccormick3[4,2]: - y[4,2] - u[4,2] + r[4,2] >= -1
 mccormick3[4,3]: - y[4,3] - u[4,3] + r[4,3] >= -1
 mccormick3[4,5]: - y[4,5] - u[4,5] + r[4,5] >= -1
 mccormick3[4,6]: - y[4,6] - u[4,6] + r[4,6] >= -1
 mccormick3[4,7]: - y[4,7] - u[4,7] + r[4,7] >= -1
 mccormick3[4,9]: - y[4,9] - u[4,9] + r[4,9] >= -1
 mccormick3[5,0]: - y[5,0] - u[5,0] + r[5,0] >= -1
 mccormick3[5,1]: - y[5,1] - u[5,1] + r[5,1] >= -1
 mccormick3[5,2]: - y[5,2] - u[5,2] + r[5,2] >= -1
 mccormick3[5,3]: - y[5,3] - u[5,3] + r[5,3] >= -1
 mccormick3[5,4]: - y[5,4] - u[5,4] + r[5,4] >= -1
 mccormick3[5,6]: - y[5,6] - u[5,6] + r[5,6] >= -1
 mccormick3[5,7]: - y[5,7] - u[5,7] + r[5,7] >= -1
 mccormick3[5,9]: - y[5,9] - u[5,9] + r[5,9] >= -1
 mccormick3[6,0]: - y[6,0] - u[6,0] + r[6,0] >= -1
 mccormick3[6,2]: - y[6,2] - u[6,2] + r[6,2] >= -1
 mccormick3[6,3]: - y[6,3] - u[6,3] + r[6,3] >= -1
 mccormick3[6,4]: - y[6,4] - u[6,4] + r[6,4] >= -1
 mccormick3[6,5]: - y[6,5] - u[6,5] + r[6,5] >= -1
 mccormick3[6,7]: - y[6,7] - u[6,7] + r[6,7] >= -1
 mccormick3[6,8]: - y[6,8] - u[6,8] + r[6,8] >= -1
 mccormick3[6,9]: - y[6,9] - u[6,9] + r[6,9] >= -1
 mccormick3[6,10]: - y[6,10] - u[6,10] + r[6,10] >= -1
 mccormick3[7,0]: - y[7,0] - u[7,0] + r[7,0] >= -1
 mccormick3[7,2]: - y[7,2] - u[7,2] + r[7,2] >= -1
 mccormick3[7,3]: - y[7,3] - u[7,3] + r[7,3] >= -1
 mccormick3[7,4]: - y[7,4] - u[7,4] + r[7,4] >= -1
 mccormick3[7,5]: - y[7,5] - u[7,5] + r[7,5] >= -1
 mccormick3[7,6]: - y[7,6] - u[7,6] + r[7,6] >= -1
 mccormick3[7,9]: - y[7,9] - u[7,9] + r[7,9] >= -1
 mccormick3[8,0]: - y[8,0] - u[8,0] + r[8,0] >= -1
 mccormick3[8,1]: - y[8,1] - u[8,1] + r[8,1] >= -1
 mccormick3[8,3]: - y[8,3] - u[8,3] + r[8,3] >= -1
 mccormick3[8,6]: - y[8,6] - u[8,6] + r[8,6] >= -1
 mccormick3[8,9]: - y[8,9] - u[8,9] + r[8,9] >= -1
 mccormick3[8,10]: - y[8,10] - u[8,10] + r[8,10] >= -1
 mccormick3[9,0]: - y[9,0] - u[9,0] + r[9,0] >= -1
 mccormick3[9,1]: - y[9,1] - u[9,1] + r[9,1] >= -1
 mccormick3[9,2]: - y[9,2] - u[9,2] + r[9,2] >= -1
 mccormick3[9,3]: - y[9,3] - u[9,3] + r[9,3] >= -1
 mccormick3[9,4]: - y[9,4] - u[9,4] + r[9,4] >= -1
 mccormick3[9,5]: - y[9,5] - u[9,5] + r[9,5] >= -1
 mccormick3[9,6]: - y[9,6] - u[9,6] + r[9,6] >= -1
 mccormick3[9,7]: - y[9,7] - u[9,7] + r[9,7] >= -1
 mccormick3[9,8]: - y[9,8] - u[9,8] + r[9,8] >= -1
 mccormick3[9,10]: - y[9,10] - u[9,10] + r[9,10] >= -1
 mccormick3[10,0]: - y[10,0] - u[10,0] + r[10,0] >= -1
 mccormick3[10,1]: - y[10,1] - u[10,1] + r[10,1] >= -1
 mccormick3[10,3]: - y[10,3] - u[10,3] + r[10,3] >= -1
 mccormick3[10,6]: - y[10,6] - u[10,6] + r[10,6] >= -1
 mccormick3[10,8]: - y[10,8] - u[10,8] + r[10,8] >= -1
 mccormick3[10,9]: - y[10,9] - u[10,9] + r[10,9] >= -1
Bounds
Binaries
 y[0,1] y[0,2] y[0,3] y[0,4] y[0,5] y[0,6] y[0,7] y[0,8] y[0,9] y[0,10]
 y[1,0] y[1,2] y[1,3] y[1,5] y[1,8] y[1,9] y[1,10] y[2,0] y[2,1] y[2,3]
 y[2,4] y[2,5] y[2,6] y[2,7] y[2,9] y[3,0] y[3,1] y[3,2] y[3,4] y[3,5]
 y[3,6] y[3,7] y[3,8] y[3,9] y[3,10] y[4,0] y[4,2] y[4,3] y[4,5] y[4,6]
 y[4,7] y[4,9] y[5,0] y[5,1] y[5,2] y[5,3] y[5,4] y[5,6] y[5,7] y[5,9]
 y[6,0] y[6,2] y[6,3] y[6,4] y[6,5] y[6,7] y[6,8] y[6,9] y[6,10] y[7,0]
 y[7,2] y[7,3] y[7,4] y[7,5] y[7,6] y[7,9] y[8,0] y[8,1] y[8,3] y[8,6]
 y[8,9] y[8,10] y[9,0] y[9,1] y[9,2] y[9,3] y[9,4] y[9,5] y[9,6] y[9,7]
 y[9,8] y[9,10] y[10,0] y[10,1] y[10,3] y[10,6] y[10,8] y[10,9] u[0,1]
 u[0,2] u[0,3] u[0,4] u[0,5] u[0,6] u[0,7] u[0,8] u[0,9] u[0,10] u[1,0]
 u[1,2] u[1,3] u[1,5] u[1,8] u[1,9] u[1,10] u[2,0] u[2,1] u[2,3] u[2,4]
 u[2,5] u[2,6] u[2,7] u[2,9] u[3,0] u[3,1] u[3,2] u[3,4] u[3,5] u[3,6]
 u[3,7] u[3,8] u[3,9] u[3,10] u[4,0] u[4,2] u[4,3] u[4,5] u[4,6] u[4,7]
 u[4,9] u[5,0] u[5,1] u[5,2] u[5,3] u[5,4] u[5,6] u[5,7] u[5,9] u[6,0]
 u[6,2] u[6,3] u[6,4] u[6,5] u[6,7] u[6,8] u[6,9] u[6,10] u[7,0] u[7,2]
 u[7,3] u[7,4] u[7,5] u[7,6] u[7,9] u[8,0] u[8,1] u[8,3] u[8,6] u[8,9]
 u[8,10] u[9,0] u[9,1] u[9,2] u[9,3] u[9,4] u[9,5] u[9,6] u[9,7] u[9,8]
 u[9,10] u[10,0] u[10,1] u[10,3] u[10,6] u[10,8] u[10,9] r[0,1] r[0,2]
 r[0,3] r[0,4] r[0,5] r[0,6] r[0,7] r[0,8] r[0,9] r[0,10] r[1,0] r[1,2]
 r[1,3] r[1,5] r[1,8] r[1,9] r[1,10] r[2,0] r[2,1] r[2,3] r[2,4] r[2,5]
 r[2,6] r[2,7] r[2,9] r[3,0] r[3,1] r[3,2] r[3,4] r[3,5] r[3,6] r[3,7]
 r[3,8] r[3,9] r[3,10] r[4,0] r[4,2] r[4,3] r[4,5] r[4,6] r[4,7] r[4,9]
 r[5,0] r[5,1] r[5,2] r[5,3] r[5,4] r[5,6] r[5,7] r[5,9] r[6,0] r[6,2]
 r[6,3] r[6,4] r[6,5] r[6,7] r[6,8] r[6,9] r[6,10] r[7,0] r[7,2] r[7,3]
 r[7,4] r[7,5] r[7,6] r[7,9] r[8,0] r[8,1] r[8,3] r[8,6] r[8,9] r[8,10]
 r[9,0] r[9,1] r[9,2] r[9,3] r[9,4] r[9,5] r[9,6] r[9,7] r[9,8] r[9,10]
 r[10,0] r[10,1] r[10,3] r[10,6] r[10,8] r[10,9]
End
